100
100
625 20
482 2
492 15
939 21
411 16
340 8
554 5
863 7
324 7
354 12
250 22
692 14
735 2
512 20
726 3
963 25
150 22
904 16
336 17
713 23
85 3
33 15
507 22
721 8
253 1
721 3
298 15
843 7
866 5
479 17
107 18
293 6
589 23
896 2
742 9
374 1
13 8
167 21
4 14
53 7
664 1
759 11
890 3
345 5
307 23
346 16
967 16
21 6
538 19
184 4
229 9
456 16
667 22
111 20
860 16
926 1
641 11
836 7
989 5
636 22
354 9
412 21
324 8
228 13
53 11
844 8
319 1
873 12
273 10
7 9
202 9
359 19
320 22
75 10
78 13
306 7
396 18
104 21
502 8
283 4
93 3
538 13
129 10
100 3
96 6
588 25
389 24
843 10
845 20
71 22
332 2
705 4
446 10
149 22
842 8
852 9
261 14
49 16
150 23
493 22
